! pbe0 def2-TZVP TIGHTSCF
% maxcore 2000
*xyz 0 3
 C       0.0000000     0.0000000     0.000000000
*
