! RI-MP2 RIJK def2-TZVP def2-TZVP/C def2-TZVP/JK TIGHTSCF
% maxcore 2000
% mp2 density relaxed end
*xyz 0 1
 O       -0.0343604951     0.9775395708     0.0076015923 
 H        0.0647664923     0.0205721989     0.0015346341 
 H        0.8717903737     1.3007924048     0.0006931336 
*
