! RI-MP2 RIJK def2-TZVP def2-TZVP/C def2-TZVP/JK TIGHTSCF
% maxcore 2000
% mp2 density relaxed end
*xyz 0 1
 C       -0.0133239314     1.1324657151     0.0082758861 
 N        0.0023107217    -0.0191585871     0.0019287305 
 H       -0.0278026991     2.1989492963     0.0141537903 
*
